LPs/20_8/20_8a16smaller5.dat-s
4
6
1 1 1 1 1 1
-1 -1 -1 -1
0 1 1 1 -5
2 1 1 1 1
3 1 1 1 -1
4 1 1 1 -3
0 2 1 1 -95
2 2 1 1 -1
3 2 1 1 -1
4 2 1 1 31
0 3 1 1 -285
2 3 1 1 -7
3 3 1 1 7
4 3 1 1 -43
0 4 1 1 -1
1 4 1 1 -1
0 5 1 1 1
1 5 1 1 1
0 6 1 1 -1278
4 6 1 1 -256
