LPs/20_8/20_8a16smaller5.lp
Maximize
 +1 y1 +1 y2 +1 y4 +1 y6 
Subject To
#lineaire constraints (Krawchuk):
 +5 +1 y2 +-1 y4 +-3 y6  >= 0
 +95 +-1 y2 +-1 y4 +31 y6  >= 0
 +285 +-7 y2 +7 y4 +-43 y6 >= 0
+1 +-1 y1 >=0
+-1 +1 y1 >=0
#a16 <= 5-2/256;
 +1278 +-256 y6 >=0
