LPs/20_8/20_8a16smaller5.result
SDPA-GMP start at Thu Apr 19 18:00:08 2018
data      is 20_8a16smaller5.dat-s
parameter is ./param.sdpa
out       is 20_8a16smaller5.result
DENSE computation
   mu      thetaP  thetaD  objP      objD      alphaP  alphaD  beta 
 0 1.0e+10 1.0e+00 1.0e+00 +0.00e+00 -1.66e+08 8.3e-01 8.5e-01 2.00e-01
 1 2.2e+09 1.7e-01 1.5e-01 +1.32e+05 -2.48e+07 9.0e-01 6.8e-01 2.00e-01
 2 6.4e+08 1.7e-02 4.8e-02 +2.32e+05 -7.92e+06 9.0e-01 8.7e-01 2.00e-01
 3 1.1e+08 1.7e-03 6.2e-03 +3.04e+05 -1.02e+06 9.0e-01 8.9e-01 2.00e-01
 4 1.5e+07 1.7e-04 6.5e-04 +3.87e+05 -1.08e+05 9.0e-01 9.0e-01 2.00e-01
 5 2.1e+06 1.7e-05 6.4e-05 +4.90e+05 -1.09e+04 9.0e-01 9.1e-01 2.00e-01
 6 3.3e+05 1.7e-06 5.6e-06 +5.38e+05 -1.18e+03 9.0e-01 1.0e+00 2.00e-01
 7 6.2e+04 1.7e-07 8.5e-161 +3.00e+05 -2.56e+02 9.0e-01 9.0e-01 2.00e-01
 8 1.4e+04 1.7e-08 7.4e-161 +7.43e+04 -2.56e+02 9.0e-01 9.0e-01 2.00e-01
 9 3.3e+03 1.7e-09 9.9e-160 +1.75e+04 -2.56e+02 9.0e-01 9.0e-01 2.00e-01
10 7.7e+02 1.7e-10 3.1e-159 +3.92e+03 -2.56e+02 9.0e-01 9.0e-01 2.00e-01
11 1.8e+02 1.7e-11 2.9e-158 +7.18e+02 -2.56e+02 9.0e-01 9.0e+01 2.00e-01
12 2.5e+02 1.7e-12 1.4e-154 -2.96e+01 -2.56e+02 9.0e-01 9.0e-01 2.00e-01
13 5.9e+01 1.7e-13 7.8e-156 -5.01e+01 -2.56e+02 9.0e-01 9.0e+01 2.00e-01
14 8.4e+01 1.7e-14 8.9e-153 -1.93e+02 -2.56e+02 9.0e-01 9.0e-01 2.00e-01
15 1.9e+01 1.7e-15 1.5e-153 -1.89e+02 -2.56e+02 9.0e-01 9.0e+01 2.00e-01
16 2.8e+01 1.7e-16 9.1e-151 -2.35e+02 -2.56e+02 9.0e-01 9.0e-01 2.00e-01
17 6.4e+00 1.7e-17 1.0e-152 -2.34e+02 -2.56e+02 9.0e-01 9.0e+01 2.00e-01
18 9.1e+00 1.7e-18 1.3e-148 -2.49e+02 -2.56e+02 9.0e-01 9.0e-01 2.00e-01
19 2.1e+00 1.7e-19 2.3e-149 -2.49e+02 -2.56e+02 9.0e-01 9.0e+01 2.00e-01
20 3.0e+00 1.7e-20 5.3e-147 -2.54e+02 -2.56e+02 9.0e-01 9.0e-01 2.00e-01
21 6.9e-01 1.7e-21 1.8e-148 -2.54e+02 -2.56e+02 9.0e-01 1.3e+01 2.00e-01
22 2.5e-01 1.7e-22 2.1e-147 -2.55e+02 -2.56e+02 9.0e-01 9.0e-01 2.00e-01
23 5.8e-02 1.7e-23 1.5e-148 -2.56e+02 -2.56e+02 9.0e-01 1.7e+00 2.00e-01
24 1.0e-02 1.7e-24 1.4e-147 -2.56e+02 -2.56e+02 9.0e-01 3.5e+00 2.00e-01
25 2.1e-03 1.7e-25 8.3e-146 -2.56e+02 -2.56e+02 9.0e-01 9.0e-01 2.00e-01
26 4.9e-04 1.7e-26 8.3e-147 -2.56e+02 -2.56e+02 9.0e-01 1.2e+00 2.00e-01
27 8.6e-05 1.7e-27 1.5e-147 -2.56e+02 -2.56e+02 9.0e-01 1.6e+00 2.00e-01
28 1.6e-05 1.7e-28 8.6e-148 -2.56e+02 -2.56e+02 9.0e-01 3.8e+00 2.00e-01
29 3.3e-06 1.7e-29 2.4e-147 -2.56e+02 -2.56e+02 9.0e-01 9.0e-01 2.00e-01
30 7.6e-07 1.7e-30 2.4e-148 -2.56e+02 -2.56e+02 9.0e-01 1.2e+00 2.00e-01
31 1.3e-07 1.7e-31 4.6e-149 -2.56e+02 -2.56e+02 9.0e-01 1.6e+00 2.00e-01
32 2.4e-08 1.7e-32 2.5e-149 -2.56e+02 -2.56e+02 9.0e-01 3.9e+00 2.00e-01
33 5.1e-09 1.7e-33 5.4e-159 -2.56e+02 -2.56e+02 9.0e-01 9.0e-01 2.00e-01
34 1.2e-09 1.7e-34 5.1e-160 -2.56e+02 -2.56e+02 9.0e-01 1.2e+00 2.00e-01
35 2.1e-10 1.7e-35 1.7e-161 -2.56e+02 -2.56e+02 9.0e-01 1.6e+00 2.00e-01
36 3.8e-11 1.7e-36 4.7e-161 -2.56e+02 -2.56e+02 9.0e-01 3.9e+00 2.00e-01
37 8.0e-12 1.7e-37 2.0e-142 -2.56e+02 -2.56e+02 9.0e-01 9.0e-01 2.00e-01
38 1.9e-12 1.7e-38 6.3e-161 -2.56e+02 -2.56e+02 9.0e-01 1.2e+00 2.00e-01
39 3.3e-13 1.7e-39 2.8e-161 -2.56e+02 -2.56e+02 9.0e-01 1.6e+00 2.00e-01
40 5.9e-14 1.7e-40 1.0e-142 -2.56e+02 -2.56e+02 9.0e-01 3.9e+00 2.00e-01
41 1.3e-14 1.7e-41 2.5e-142 -2.56e+02 -2.56e+02 9.0e-01 9.0e-01 2.00e-01
42 2.9e-15 1.7e-42 8.3e-161 -2.56e+02 -2.56e+02 9.0e-01 1.2e+00 2.00e-01
43 5.1e-16 1.7e-43 3.0e-142 -2.56e+02 -2.56e+02 9.0e-01 1.6e+00 2.00e-01
44 9.2e-17 1.7e-44 9.8e-141 -2.56e+02 -2.56e+02 9.0e-01 3.9e+00 2.00e-01
45 2.0e-17 1.7e-45 2.8e-140 -2.56e+02 -2.56e+02 9.0e-01 9.0e-01 2.00e-01
46 4.5e-18 1.7e-46 3.4e-141 -2.56e+02 -2.56e+02 9.0e-01 1.2e+00 2.00e-01
47 8.0e-19 1.7e-47 7.6e-141 -2.56e+02 -2.56e+02 9.0e-01 1.6e+00 2.00e-01
48 1.4e-19 1.7e-48 1.6e-139 -2.56e+02 -2.56e+02 9.0e-01 3.9e+00 2.00e-01
49 3.0e-20 1.7e-49 4.0e-139 -2.56e+02 -2.56e+02 9.0e-01 9.0e-01 2.00e-01
50 7.1e-21 1.7e-50 4.0e-140 -2.56e+02 -2.56e+02 9.0e-01 1.2e+00 2.00e-01
51 1.2e-21 1.7e-51 7.4e-141 -2.56e+02 -2.56e+02 9.0e-01 1.6e+00 2.00e-01
52 2.2e-22 1.7e-52 4.2e-141 -2.56e+02 -2.56e+02 9.0e-01 3.9e+00 2.00e-01
53 4.8e-23 1.7e-53 1.2e-140 -2.56e+02 -2.56e+02 9.0e-01 9.0e-01 2.00e-01
54 1.1e-23 1.7e-54 1.2e-141 -2.56e+02 -2.56e+02 9.0e-01 1.2e+00 2.00e-01
55 1.9e-24 1.7e-55 2.0e-142 -2.56e+02 -2.56e+02 9.0e-01 1.6e+00 2.00e-01
56 3.5e-25 1.7e-56 2.0e-142 -2.56e+02 -2.56e+02 9.0e-01 3.9e+00 2.00e-01
57 7.4e-26 1.7e-57 1.8e-140 -2.56e+02 -2.56e+02 9.0e-01 9.0e-01 2.00e-01
58 1.7e-26 1.7e-58 8.1e-142 -2.56e+02 -2.56e+02 9.0e-01 1.2e+00 2.00e-01
59 3.0e-27 1.7e-59 2.6e-140 -2.56e+02 -2.56e+02 9.0e-01 1.6e+00 2.00e-01
60 5.5e-28 1.7e-60 2.9e-139 -2.56e+02 -2.56e+02 9.0e-01 3.9e+00 2.00e-01
61 1.2e-28 1.7e-61 8.8e-138 -2.56e+02 -2.56e+02 9.0e-01 9.0e-01 2.00e-01
62 2.7e-29 1.7e-62 4.7e-137 -2.56e+02 -2.56e+02 9.0e-01 1.2e+00 2.00e-01
63 4.7e-30 1.7e-63 9.2e-136 -2.56e+02 -2.56e+02 9.0e-01 1.6e+00 2.00e-01
64 8.5e-31 1.7e-64 3.2e-134 -2.56e+02 -2.56e+02 9.0e-01 3.9e+00 2.00e-01
65 1.8e-31 1.7e-65 9.1e-134 -2.56e+02 -2.56e+02 9.0e-01 9.0e-01 2.00e-01
66 4.2e-32 1.7e-66 9.1e-135 -2.56e+02 -2.56e+02 9.0e-01 1.2e+00 2.00e-01
67 7.4e-33 1.7e-67 1.7e-135 -2.56e+02 -2.56e+02 9.0e-01 1.6e+00 2.00e-01
68 1.3e-33 1.7e-68 9.5e-136 -2.56e+02 -2.56e+02 9.0e-01 3.9e+00 2.00e-01
69 2.8e-34 1.7e-69 2.7e-135 -2.56e+02 -2.56e+02 9.0e-01 9.0e-01 2.00e-01
70 6.5e-35 1.7e-70 2.5e-136 -2.56e+02 -2.56e+02 9.0e-01 1.2e+00 2.00e-01
71 1.1e-35 1.7e-71 4.1e-136 -2.56e+02 -2.56e+02 9.0e-01 1.6e+00 2.00e-01
72 2.1e-36 1.7e-72 3.0e-135 -2.56e+02 -2.56e+02 9.0e-01 3.9e+00 2.00e-01
73 4.4e-37 1.7e-73 6.6e-134 -2.56e+02 -2.56e+02 9.0e-01 9.0e-01 2.00e-01
74 1.0e-37 1.7e-74 1.4e-133 -2.56e+02 -2.56e+02 9.0e-01 1.2e+00 2.00e-01
75 1.8e-38 1.7e-75 2.9e-132 -2.56e+02 -2.56e+02 9.0e-01 1.6e+00 2.00e-01
76 3.2e-39 1.7e-76 4.5e-131 -2.56e+02 -2.56e+02 9.0e-01 3.9e+00 2.00e-01
77 6.9e-40 1.7e-77 1.3e-130 -2.56e+02 -2.56e+02 9.0e-01 9.0e-01 2.00e-01
78 1.6e-40 1.7e-78 1.3e-131 -2.56e+02 -2.56e+02 9.0e-01 1.2e+00 2.00e-01
79 2.8e-41 1.7e-79 2.3e-132 -2.56e+02 -2.56e+02 9.0e-01 1.6e+00 2.00e-01
80 5.1e-42 1.7e-80 3.5e-132 -2.56e+02 -2.56e+02 9.0e-01 3.9e+00 2.00e-01
81 1.1e-42 1.7e-81 5.4e-131 -2.56e+02 -2.56e+02 9.0e-01 9.0e-01 2.00e-01
82 2.5e-43 1.7e-82 4.3e-130 -2.56e+02 -2.56e+02 9.0e-01 1.2e+00 2.00e-01
83 4.4e-44 1.7e-83 4.9e-129 -2.56e+02 -2.56e+02 9.0e-01 1.6e+00 2.00e-01
84 7.9e-45 1.7e-84 2.8e-129 -2.56e+02 -2.56e+02 9.0e-01 3.9e+00 2.00e-01
85 1.7e-45 1.7e-85 7.9e-129 -2.56e+02 -2.56e+02 9.0e-01 9.0e-01 2.00e-01
86 3.9e-46 1.7e-86 7.9e-130 -2.56e+02 -2.56e+02 9.6e-01 1.0e+00 1.00e-01
87 4.2e-47 1.7e-86 1.9e-131 -2.56e+02 -2.56e+02 9.7e-01 1.0e+00 1.00e-01
88 4.3e-48 1.7e-86 5.1e-133 -2.56e+02 -2.56e+02 9.7e-01 1.0e+00 1.00e-01
89 4.3e-49 1.7e-86 1.4e-134 -2.56e+02 -2.56e+02 9.7e-01 1.0e+00 1.00e-01
90 4.3e-50 1.7e-86 3.9e-136 -2.56e+02 -2.56e+02 9.7e-01 1.0e+00 1.00e-01
91 4.3e-51 1.7e-86 1.1e-137 -2.56e+02 -2.56e+02 9.7e-01 1.0e+00 1.00e-01
92 4.3e-52 1.7e-86 3.1e-139 -2.56e+02 -2.56e+02 9.7e-01 1.0e+00 1.00e-01
93 4.3e-53 1.7e-86 8.6e-141 -2.56e+02 -2.56e+02 9.7e-01 1.0e+00 1.00e-01
94 4.3e-54 1.7e-86 2.0e-142 -2.56e+02 -2.56e+02 9.7e-01 1.0e+00 1.00e-01
95 4.3e-55 1.7e-86 5.1e-143 -2.56e+02 -2.56e+02 9.7e-01 1.0e+00 1.00e-01
96 4.3e-56 1.7e-86 2.9e-156 -2.56e+02 -2.56e+02 9.7e-01 1.0e+00 1.00e-01
97 4.3e-57 1.7e-86 5.1e-143 -2.56e+02 -2.56e+02 9.7e-01 1.0e+00 1.00e-01
98 4.3e-58 1.7e-86 5.1e-143 -2.56e+02 -2.56e+02 9.7e-01 1.0e+00 1.00e-01
99 4.3e-59 1.7e-86 5.1e-143 -2.56e+02 -2.56e+02 9.7e-01 1.0e+00 1.00e-01
100 4.3e-60 1.7e-86 5.2e-145 -2.56e+02 -2.56e+02 9.7e-01 1.0e+00 1.00e-01
101 4.3e-61 1.7e-86 1.4e-145 -2.56e+02 -2.56e+02 9.7e-01 1.0e+00 1.00e-01
102 4.3e-62 1.7e-86 4.3e-145 -2.56e+02 -2.56e+02 9.7e-01 1.0e+00 1.00e-01
103 4.3e-63 1.7e-86 7.9e-144 -2.56e+02 -2.56e+02 9.7e-01 1.0e+00 1.00e-01
104 4.3e-64 1.7e-86 2.2e-145 -2.56e+02 -2.56e+02 9.7e-01 1.0e+00 1.00e-01
105 4.3e-65 1.7e-86 4.5e-145 -2.56e+02 -2.56e+02 9.7e-01 1.0e+00 1.00e-01
106 4.3e-66 1.7e-86 2.2e-144 -2.56e+02 -2.56e+02 9.7e-01 1.0e+00 1.00e-01
107 4.3e-67 1.7e-86 2.2e-143 -2.56e+02 -2.56e+02 9.7e-01 1.0e+00 1.00e-01
108 4.3e-68 1.7e-86 2.8e-141 -2.56e+02 -2.56e+02 9.7e-01 1.0e+00 1.00e-01
109 4.3e-69 1.7e-86 1.3e-139 -2.56e+02 -2.56e+02 9.7e-01 1.0e+00 1.00e-01
110 4.3e-70 1.7e-86 3.5e-138 -2.56e+02 -2.56e+02 9.7e-01 1.0e+00 1.00e-01
111 4.3e-71 1.7e-86 1.3e-137 -2.56e+02 -2.56e+02 9.7e-01 1.0e+00 1.00e-01
112 4.3e-72 1.7e-86 1.5e-135 -2.56e+02 -2.56e+02 9.7e-01 1.0e+00 1.00e-01
113 4.3e-73 1.7e-86 5.5e-134 -2.56e+02 -2.56e+02 9.7e-01 1.0e+00 1.00e-01
114 4.3e-74 1.7e-86 1.7e-132 -2.56e+02 -2.56e+02 9.7e-01 1.0e+00 1.00e-01
115 4.3e-75 1.7e-86 2.7e-131 -2.56e+02 -2.56e+02 9.7e-01 1.0e+00 1.00e-01
116 4.3e-76 1.7e-86 2.5e-128 -2.56e+02 -2.56e+02 9.7e-01 1.0e+00 1.00e-01
117 4.3e-77 1.7e-86 1.6e-127 -2.56e+02 -2.56e+02 9.7e-01 1.0e+00 1.00e-01
118 4.3e-78 1.7e-86 6.4e-127 -2.56e+02 -2.56e+02 9.7e-01 1.0e+00 1.00e-01
119 4.3e-79 1.7e-86 1.4e-126 -2.56e+02 -2.56e+02 9.7e-01 1.0e+00 1.00e-01

phase.value = pdOPT     
   Iteration = 119
          mu = 4.3396122757152811e-79
relative gap = 7.4444323521397255e-81
         gap = 2.6037673654291687e-78
      digits = 8.0128168412180727e+01
objValPrimal = -2.5575000000000000e+02
objValDual   = -2.5575000000000000e+02
p.feas.error = 1.7125289039892168e-81
d.feas.error = 3.6955364399726424e-119
relative eps = 7.4583407312002067e-155
total time   = 0.020


Parameters are
maxIteration =    1000
epsilonStar  = 1.000e-80
lambdaStar   = 1.000e+05
omegaStar    = 2.000e+00
lowerBound   = -1.000e+05
upperBound   = 1.000e+05
betaStar     = 1.000e-01
betaBar      = 2.000e-01
gammaStar    = 9.000e-01
epsilonDash  = 1.000e-80
precision    =    512

                         Time(sec)  Ratio(% : MainLoop) 
 Predictor time  =       0.000000,  0.000000
 Corrector time  =       0.000000,  0.000000
 Make bMat time  =       0.000000,  0.000000
 Make bDia time  =       0.000000,  0.000000
 Make bF1  time  =       0.000000,  0.000000
 Make bF2  time  =       0.000000,  0.000000
 Make bF3  time  =       0.000000,  0.000000
 Make bPRE time  =       0.000000,  0.000000
 Make rMat time  =       0.000000,  0.000000
 Make gVec Mul   =       0.000000,  0.000000
 Make gVec time  =       0.000000,  0.000000
 Cholesky bMat   =       0.000000,  0.000000
 Ste Pre time    =       0.000000,  0.000000
 Ste Cor time    =       0.000000,  0.000000
 solve           =       0.000000,  0.000000
 sumDz           =       0.000000,  0.000000
 makedX          =       0.000000,  0.000000
 symmetriseDx    =       0.000000,  0.000000
 makedXdZ        =       0.000000,  0.000000
 xMatTime        =       0.000000,  0.000000
 zMatTime        =       0.000000,  0.000000
 invzMatTime     =       0.000000,  0.000000
 xMatzMatTime    =       0.000000,  0.000000
 EigxMatTime     =       0.000000,  0.000000
 EigzMatTime     =       0.000000,  0.000000
 EigxMatzMatTime =       0.000000,  0.000000
 updateRes       =       0.000000,  0.000000
 EigTime         =       0.000000,  0.000000
 sub_total_bMat  =       0.020000,  100.000000
 Main Loop       =       0.020000,  100.000000
 File Check      =       0.000000,  0.000000
 File Change     =       0.000000,  0.000000
 File Read       =       0.000000,  0.000000
 Total           =       0.020000,  100.000000

xVec = 
{+1.00000000000000000000000000000000000000000000000000000000000000000000000000000000000087826152372680650481468174935611289696948252403435295314539311426757149e+00,+1.29885044642857142857142857142857142857142873494001255459088126843773789218662909159987544380918004781264773944157243584943980720888367397442529753698835434e+02,+1.19872767857142857142857142857142857142857126505998744540911873156226210781337089652895582558326716870924072030424166936439007584122589853151464839282696924e+02,+4.99218749999999999999999999999999999999999999999999999999999999999999999999999998113307254414849845811127024660389144323377956794718866704277193236731033964e+00}
xMat = 
{
{+3.57142857142857142857142857142857142857469880025109181762536875475784373258195654051703434282770120537724789149325152796714375070159218864320538910394750896e-02}
{+6.03953006822040230740064708646741840692477243724051477121580523177585531237933252384669072177630172687243505454907524002901086009291785434061817804198269407e-79}
{+2.49999999999999999999999999999999999999771083982423572766224187166950938719264263341778963777195406344489394345152237870569815189901866235628561302974300496e-01}
{+1.71161639222991252666396459339488136015075514792024641176498621321351503868972390836387410822831643121303690883882676701744596125375431399092369612640498225e-81}
{+1.71340716551294356823454294196894722423053792589905331066850133431752549220046499551322926496998106188053361537849494461691876994062872312945710902999369213e-81}
{+4.8316240545763218459205176691739347299596888806796876457730407791023053495861021877455830680955827876852737621296906573622957966135085645392076798909685411e-78}
}
yMat = 
{
{+9.77102912526512454344054569596851308904787690659413495979445290181757328018738052211754501368015396197520242923344019353286052914554052548729017689611029737e-78}
{+9.99999999999999999999999999999999999999999999999999999999999999999999999999999999999999999999999999999999999999999999977226672166158978252939332923103323502e-01}
{+1.3958613036093035062057922422812161555782701555186715493138673465363296925357988775760500727390213771998457089157399102426412240899467390770902429674993485e-78}
{+2.04274246687817163484805734684423435510357815511916603941743191147116340132424436408772992120382235373868268267442070746968122400159884111728858914307691714e+02}
{+2.03274246687817163484805734684423435510357815511916603941743191147116340132424436408772992120382235373868268267442070746968122400159884111728858914307691714e+02}
{+1.24999999999999999999999999999999999999999999999999999999999999999999999999999651034674097674123448551939429695961105429822744415569455184247120501480733646e-01}
}
    main loop time = 0.020000
        total time = 0.020000
  file   read time = 0.000000
